(set-logic QF_UF)
(declare-fun A0 () Bool)
(declare-fun A1 () Bool)
(declare-fun A2 () Bool)
(declare-fun A4 () Bool)
(declare-fun A5 () Bool)
(declare-fun A6 () Bool)
(declare-fun A7 () Bool)
(declare-fun A8 () Bool)
(declare-fun A9 () Bool)
(declare-fun A10 () Bool)
(declare-fun A11 () Bool)
(declare-fun A12 () Bool)
(declare-fun A13 () Bool)
(declare-fun A14 () Bool)
(declare-fun A15 () Bool)
(declare-fun A16 () Bool)
(declare-fun A17 () Bool)
(declare-fun A18 () Bool)
(declare-fun A19 () Bool)
(declare-fun A20 () Bool)
(declare-fun A21 () Bool)
(declare-fun A22 () Bool)
(declare-fun A23 () Bool)
(declare-fun A24 () Bool)
(assert (let ((.def_0 (not A8))) (let ((.def_1 (not A9))) (let ((.def_2 (= .def_1 .def_0))) (let ((.def_3 (or A22 A10))) (let ((.def_4 (and .def_3 .def_2))) (let ((.def_5 (or A0 A17))) (let ((.def_6 (= A20 A22))) (let ((.def_7 (and .def_6 .def_5))) (let ((.def_8 (and .def_7 .def_4))) (let ((.def_9 (not .def_8))) (let ((.def_10 (not A15))) (let ((.def_11 (and .def_10 A4))) (let ((.def_12 (not .def_11))) (let ((.def_13 (not A21))) (let ((.def_14 (and A13 .def_13))) (let ((.def_15 (or .def_14 .def_12))) (let ((.def_16 (not .def_15))) (let ((.def_17 (not A13))) (let ((.def_18 (not A4))) (let ((.def_19 (or .def_18 .def_17))) (let ((.def_20 (not .def_19))) (let ((.def_21 (not A17))) (let ((.def_22 (and A12 .def_21))) (let ((.def_23 (and .def_22 .def_20))) (let ((.def_24 (or .def_23 .def_16))) (let ((.def_25 (and .def_24 .def_9))) (let ((.def_26 (not .def_25))) (let ((.def_27 (and A5 A18))) (let ((.def_28 (not A14))) (let ((.def_29 (or .def_28 .def_18))) (let ((.def_30 (and .def_29 .def_27))) (let ((.def_31 (not .def_30))) (let ((.def_32 (not A10))) (let ((.def_33 (and A13 .def_32))) (let ((.def_34 (not A7))) (let ((.def_35 (and .def_34 A14))) (let ((.def_36 (or .def_35 .def_33))) (let ((.def_37 (not .def_36))) (let ((.def_38 (and .def_37 .def_31))) (let ((.def_39 (not A22))) (let ((.def_40 (or .def_39 A6))) (let ((.def_41 (not .def_40))) (let ((.def_42 (and A4 .def_28))) (let ((.def_43 (or .def_42 .def_41))) (let ((.def_44 (not A16))) (let ((.def_45 (and A2 .def_44))) (let ((.def_46 (and A5 A5))) (let ((.def_47 (not .def_46))) (let ((.def_48 (or .def_47 .def_45))) (let ((.def_49 (not .def_48))) (let ((.def_50 (and .def_49 .def_43))) (let ((.def_51 (= .def_50 .def_38))) (let ((.def_52 (or .def_51 .def_26))) (let ((.def_53 (and A19 A5))) (let ((.def_54 (and .def_28 A0))) (let ((.def_55 (and .def_54 .def_53))) (let ((.def_56 (not .def_55))) (let ((.def_57 (= .def_18 .def_0))) (let ((.def_58 (not A24))) (let ((.def_59 (or A18 .def_58))) (let ((.def_60 (and .def_59 .def_57))) (let ((.def_61 (or .def_60 .def_56))) (let ((.def_62 (not .def_61))) (let ((.def_63 (and .def_28 A14))) (let ((.def_64 (not .def_63))) (let ((.def_65 (not A18))) (let ((.def_66 (and .def_65 A9))) (let ((.def_67 (and .def_66 .def_64))) (let ((.def_68 (or .def_28 A18))) (let ((.def_69 (not .def_68))) (let ((.def_70 (not A12))) (let ((.def_71 (not A19))) (let ((.def_72 (= .def_71 .def_70))) (let ((.def_73 (and .def_72 .def_69))) (let ((.def_74 (or .def_73 .def_67))) (let ((.def_75 (or .def_74 .def_62))) (let ((.def_76 (not .def_75))) (let ((.def_77 (or A6 A17))) (let ((.def_78 (and .def_71 A22))) (let ((.def_79 (not .def_78))) (let ((.def_80 (and .def_79 .def_77))) (let ((.def_81 (not A5))) (let ((.def_82 (and .def_81 .def_28))) (let ((.def_83 (not A1))) (let ((.def_84 (and .def_32 .def_83))) (let ((.def_85 (not .def_84))) (let ((.def_86 (= .def_85 .def_82))) (let ((.def_87 (not .def_86))) (let ((.def_88 (and .def_87 .def_80))) (let ((.def_89 (and A13 .def_58))) (let ((.def_90 (not .def_89))) (let ((.def_91 (or A2 A23))) (let ((.def_92 (and .def_91 .def_90))) (let ((.def_93 (not .def_92))) (let ((.def_94 (or .def_65 A1))) (let ((.def_95 (or A21 A11))) (let ((.def_96 (and .def_95 .def_94))) (let ((.def_97 (or .def_96 .def_93))) (let ((.def_98 (or .def_97 .def_88))) (let ((.def_99 (or .def_98 .def_76))) (let ((.def_100 (or .def_99 .def_52))) .def_100))))))))))))))))))))))))))))))))))))))))))))))))))))))))))))))))))))))))))))))))))))))))))))))))))))))
(check-sat)
